100 68624

 66 179
108 631
268 433
222 265
804 954
530 429
90 662
693 416
255 453
455 727
253 197
257 554
383 53
442 480
858 443
599 330
90 251
749 807
390 890
582 783
44 967
712 925
664 123
598 879
19 387
101 339
914 778
607 348
766 29
357 975
542 35
761 518
938 396
33 623
970 294
229 589
524 349
630 147
862 67
155 904
423 520
905 122
246 340
405 175
844 900
759 691
541 597
161 451
747 557
702 136
117 855
271 16
770 333
692 195
487 496
885 9
172 828
950 334
274 333
259 327
135 15
683 839
722 614
748 226
422 425
421 790
186 408
929 113
364 997
955 428
607 1
378 266
523 491
580 208
891 622
722 712
196 952
881 369
98 985
605 306
984 12
22 345
450 465
172 700
383 666
134 494
426 368
25 846
503 937
185 420
85 889
567 791
763 171
144 134
863 965
910 427
679 25
412 530
224 190
220 141
